results_rootrelaxation/bin024_050_005.srr.sol
solution status: optimal solution found
objective value:                                    0
_var906_                            0.064957319236567 	(obj:0)
_var929_                           0.0806592724173242 	(obj:0)
_var7074_                           0.105995599209421 	(obj:0)
_var7075_                          0.0561568380057966 	(obj:0)
_var7082_                          0.0152666311064712 	(obj:0)
_var7087_                         0.00368925361079574 	(obj:0)
_var7089_                          0.0572862026038564 	(obj:0)
_var7090_                           0.334081243308113 	(obj:0)
_var7093_                          0.0109148684836625 	(obj:0)
_var7099_                          0.0470586652833253 	(obj:0)
_var7102_                           0.123898875405584 	(obj:0)
_var7108_                           0.211314241998129 	(obj:0)
_var7110_                          0.0730148638744771 	(obj:0)
_var7112_                           0.249663185479668 	(obj:0)
_var7118_                           0.110769331452942 	(obj:0)
_var7120_                           0.192437731098157 	(obj:0)
_var7127_                            0.22405588375848 	(obj:0)
_var7129_                         0.00591339220500638 	(obj:0)
_var7130_                          0.0114436699693573 	(obj:0)
_var7137_                           0.257484376985758 	(obj:0)
_var7138_                          0.0665584450866709 	(obj:0)
_var7139_                          0.0371874739122144 	(obj:0)
_var7140_                           0.105520568183728 	(obj:0)
_var7142_                           0.163321912921952 	(obj:0)
_var7146_                          0.0580172800609273 	(obj:0)
_var7147_                           0.192387840686322 	(obj:0)
_var7148_                          0.0872439271971071 	(obj:0)
_var7149_                           0.183987639505459 	(obj:0)
_var7153_                          0.0885432332156484 	(obj:0)
_var7154_                          0.0456328266232792 	(obj:0)
_var7155_                           0.163473696180982 	(obj:0)
_var7158_                          0.0416378282573416 	(obj:0)
_var7162_                          0.0681299926357438 	(obj:0)
_var7163_                          0.0906802026284722 	(obj:0)
_var7167_                          0.0856490989504501 	(obj:0)
_var7182_                          0.0795063967246804 	(obj:0)
_var7188_                          0.0810812388534022 	(obj:0)
_var7191_                           0.256926916711047 	(obj:0)
_var7192_                           0.162370973490117 	(obj:0)
_var7197_                           0.142297989946644 	(obj:0)
_var7198_                           0.149092505051842 	(obj:0)
_var7200_                          0.0560781744726961 	(obj:0)
_var7206_                          0.0736422277278393 	(obj:0)
_var7213_                           0.108599051061966 	(obj:0)
_var7222_                          0.0645988558683379 	(obj:0)
_var7224_                           0.220732810050979 	(obj:0)
_var7225_                           0.100271389806841 	(obj:0)
_var7226_                            0.14212542038891 	(obj:0)
_var7227_                          0.0598297494991473 	(obj:0)
_var7231_                           0.119056350631074 	(obj:0)
_var7232_                           0.282698738462878 	(obj:0)
_var7233_                           0.266022906780611 	(obj:0)
_var7234_                           0.038145446857248 	(obj:0)
_var7240_                          0.0666678087510096 	(obj:0)
_var7245_                          0.0168042839578844 	(obj:0)
_var7253_                           0.215714430810955 	(obj:0)
_var7262_                           0.130143569407297 	(obj:0)
_var7263_                           0.117392465418216 	(obj:0)
_var7265_                           0.126387798568636 	(obj:0)
_var7268_                          0.0799650510652927 	(obj:0)
_var7276_                          0.0541855422974056 	(obj:0)
_var7280_                           0.106602581572734 	(obj:0)
_var7282_                           0.131918953297649 	(obj:0)
_var7283_                           0.224746816176621 	(obj:0)
_var7287_                          0.0890490864944496 	(obj:0)
_var7291_                          0.0568488853463678 	(obj:0)
_var7292_                          0.0697249798067311 	(obj:0)
_var7293_                          0.0873588616957587 	(obj:0)
_var7294_                           0.165043973739089 	(obj:0)
_var7295_                           0.103666293732675 	(obj:0)
_var7296_                          0.0411921745703318 	(obj:0)
_var7298_                         0.00269554678977516 	(obj:0)
_var7299_                          0.0690104645720826 	(obj:0)
_var7304_                            0.25058018893344 	(obj:0)
_var7306_                           0.172551370367713 	(obj:0)
_var7307_                           0.115019126775387 	(obj:0)
_var7308_                           0.160551236869125 	(obj:0)
_var7309_                           0.103082296417613 	(obj:0)
_var7313_                          0.0702247820337063 	(obj:0)
_var7314_                          0.0124077223597179 	(obj:0)
_var7318_                           0.107754608742736 	(obj:0)
_var7319_                          0.0696423150883066 	(obj:0)
_var7323_                           0.151549636548472 	(obj:0)
_var7327_                           0.199061252976734 	(obj:0)
_var7333_                           0.306471254251522 	(obj:0)
_var7335_                           0.298166259991431 	(obj:0)
_var7336_                          0.0325387012195762 	(obj:0)
_var7337_                          0.0852016558135191 	(obj:0)
_var7340_                           0.060257511130372 	(obj:0)
_var7342_                            0.17194648521429 	(obj:0)
_var7345_                           0.160375920652322 	(obj:0)
_var7347_                            0.16352113370461 	(obj:0)
_var7348_                           0.110211558174865 	(obj:0)
_var7351_                           0.264864176458728 	(obj:0)
_var7353_                           0.292478711070333 	(obj:0)
_var7356_                          0.0442317769996659 	(obj:0)
_var7357_                          0.0257226635368623 	(obj:0)
_var7360_                          0.0187974514652148 	(obj:0)
_var7363_                           0.125073601307504 	(obj:0)
_var7364_                         0.00120888692259202 	(obj:0)
_var7365_                           0.108169894683198 	(obj:0)
_var7367_                           0.164427784838591 	(obj:0)
_var7373_                          0.0557110376818432 	(obj:0)
_var7374_                          0.0200369259642035 	(obj:0)
_var7378_                           0.019149265471632 	(obj:0)
_var7380_                           0.291855434451525 	(obj:0)
_var7382_                          0.0738171746960527 	(obj:0)
_var7384_                          0.0259212150287783 	(obj:0)
_var7385_                           0.117817343420211 	(obj:0)
_var7387_                           0.147835160019669 	(obj:0)
_var7391_                          0.0391632304128963 	(obj:0)
_var7392_                           0.169099590478861 	(obj:0)
_var7394_                           0.111674906009404 	(obj:0)
_var7395_                          0.0232375893541568 	(obj:0)
_var7396_                           0.026689223422079 	(obj:0)
_var7398_                           0.037558008337898 	(obj:0)
_var7399_                            0.23769933235888 	(obj:0)
_var7400_                           0.143830440005567 	(obj:0)
_var7401_                           0.186047228309266 	(obj:0)
_var7403_                           0.158316698702622 	(obj:0)
_var7404_                           0.167346105675803 	(obj:0)
_var7405_                          0.0201824403162024 	(obj:0)
_var7408_                           0.261155599745758 	(obj:0)
_var7409_                          0.0940480015947409 	(obj:0)
_var7410_                           0.045703706006298 	(obj:0)
_var7411_                           0.028192511729451 	(obj:0)
_var7416_                          0.0909982031673598 	(obj:0)
_var7417_                          0.0584932000009545 	(obj:0)
_var7418_                           0.119703022330777 	(obj:0)
_var7419_                          0.0475376692774773 	(obj:0)
_var7420_                         0.00607770844588064 	(obj:0)
_var7421_                          0.0226545052276989 	(obj:0)
_var7426_                          0.0543079807582221 	(obj:0)
_var7429_                           0.171908617238322 	(obj:0)
_var7430_                           0.131280257657558 	(obj:0)
_var7432_                           0.103958409212571 	(obj:0)
_var7433_                          0.0973519791812931 	(obj:0)
_var7436_                           0.173016893840667 	(obj:0)
_var7437_                           0.143268537222446 	(obj:0)
_var7441_                           0.101843602267591 	(obj:0)
_var7442_                         0.000288224485857144 	(obj:0)
_var7443_                           0.173977895503024 	(obj:0)
_var7444_                          0.0050639925997174 	(obj:0)
_var7445_                          0.0310832500118053 	(obj:0)
_var7446_                          0.0811633508908912 	(obj:0)
_var7450_                         0.00574381202498772 	(obj:0)
_var7451_                           0.175587853596296 	(obj:0)
_var7452_                          0.0239967741000956 	(obj:0)
_var7453_                          0.0979245609895469 	(obj:0)
_var7455_                          0.0390904734918098 	(obj:0)
_var7456_                          0.0421221429833804 	(obj:0)
_var7457_                         0.00151449266107237 	(obj:0)
_var7459_                          0.0863927730050742 	(obj:0)
_var7461_                          0.0614092637261035 	(obj:0)
_var7464_                           0.207883528133615 	(obj:0)
_var7465_                          0.0388855472603708 	(obj:0)
_var7468_                          0.0389484180157017 	(obj:0)
_var7469_                          0.0532571057969125 	(obj:0)
_var7470_                           0.080135354404763 	(obj:0)
_var7471_                           0.126530375822144 	(obj:0)
_var7472_                          0.0299797275361527 	(obj:0)
_var7474_                           0.148914400592763 	(obj:0)
_var7475_                          0.0286909561383841 	(obj:0)
_var7476_                          0.0326956408655336 	(obj:0)
_var7477_                          0.0480499528447792 	(obj:0)
_var7478_                          0.0169708877732974 	(obj:0)
_var7479_                         0.00159652499795707 	(obj:0)
_var7481_                           0.105991787458933 	(obj:0)
_var7482_                           0.113217979888599 	(obj:0)
_var7486_                          0.0379245294894123 	(obj:0)
_var7489_                          0.0555464856320454 	(obj:0)
_var7491_                           0.027472258304542 	(obj:0)
_var7495_                          0.0189374641942984 	(obj:0)
_var7496_                           0.035408958647497 	(obj:0)
_var7499_                           0.228200378724236 	(obj:0)
_var7500_                          0.0132075690048195 	(obj:0)
_var7502_                          0.0341079231298085 	(obj:0)
_var7503_                          0.0352442012254031 	(obj:0)
_var7504_                           0.263686292932576 	(obj:0)
_var7506_                           0.028370090487126 	(obj:0)
_var7507_                          0.0474722166675111 	(obj:0)
_var7508_                          0.0563303805163411 	(obj:0)
_var7509_                           0.137384010537818 	(obj:0)
_var7512_                          0.0737524724696622 	(obj:0)
_var7516_                            0.10389749254914 	(obj:0)
_var7517_                          0.0411017985198881 	(obj:0)
_var7518_                          0.0291930087822798 	(obj:0)
_var7519_                          0.0823370615509665 	(obj:0)
_var7521_                          0.0474919141156201 	(obj:0)
_var7522_                         0.000754802474512067 	(obj:0)
_var7523_                          0.0387969762387712 	(obj:0)
_var7524_                            0.01983961859568 	(obj:0)
_var7525_                           0.167903029387797 	(obj:0)
_var7526_                           0.046354313787989 	(obj:0)
_var7527_                         0.00667668180629965 	(obj:0)
_var7529_                          0.0944850210869854 	(obj:0)
_var7530_                          0.0470932289889674 	(obj:0)
_var7531_                          0.0776034685407456 	(obj:0)
_var7532_                          0.0562158576856094 	(obj:0)
_var7533_                         0.00175008440887629 	(obj:0)
_var7535_                         0.00146227470963945 	(obj:0)
_var7538_                          0.0392301395201738 	(obj:0)
_var7540_                           0.107023490343121 	(obj:0)
_var7541_                          0.0230645190810441 	(obj:0)
_var7542_                           0.129275167728751 	(obj:0)
_var7543_                          0.0800119520645887 	(obj:0)
_var7544_                          0.0408826825092872 	(obj:0)
_var7545_                          0.0655255730376261 	(obj:0)
_var7547_                          0.0566406044220938 	(obj:0)
_var7550_                           0.050552225062577 	(obj:0)
_var7552_                          0.0699972137714756 	(obj:0)
_var7553_                          0.0486633032817097 	(obj:0)
_var7554_                          0.0950378657986884 	(obj:0)
_var7556_                          0.0801156546396837 	(obj:0)
_var7558_                         0.00975745760395844 	(obj:0)
_var7559_                            0.12974410145823 	(obj:0)
_var7560_                           0.022186105503657 	(obj:0)
_var7561_                          0.0634241601593428 	(obj:0)
_var7562_                          0.0889842916580503 	(obj:0)
_var7563_                          0.0250142204418478 	(obj:0)
_var7564_                          0.0181788206298779 	(obj:0)
_var7565_                          0.0240236835285948 	(obj:0)
_var7566_                           0.019924315623481 	(obj:0)
_var7569_                          0.0151678891764365 	(obj:0)
_var7570_                           0.136438187683407 	(obj:0)
_var7573_                           0.104550206554124 	(obj:0)
_var7574_                          0.0772265065528796 	(obj:0)
_var7576_                          0.0165390920738407 	(obj:0)
_var7577_                           0.018307444002255 	(obj:0)
_var7578_                         0.00415273223171537 	(obj:0)
_var7580_                          0.0104665072806841 	(obj:0)
_var7582_                          0.0104196202808257 	(obj:0)
_var7584_                           0.136012156664374 	(obj:0)
_var7589_                           0.164054307544618 	(obj:0)
_var7590_                           0.117257057261876 	(obj:0)
_var7591_                          0.0349473483213696 	(obj:0)
_var7593_                         0.00566322375732117 	(obj:0)
_var7594_                          0.0502922902253464 	(obj:0)
_var7595_                          0.0306470539592985 	(obj:0)
_var7596_                          0.0158422916002014 	(obj:0)
_var7603_                          0.0145618556142402 	(obj:0)
_var7604_                          0.0122006618969842 	(obj:0)
_var7606_                         0.00373878432194136 	(obj:0)
_var7608_                          0.0206891444391832 	(obj:0)
_var7609_                          0.0477861965812056 	(obj:0)
_var7611_                          0.0642203342403654 	(obj:0)
_var7612_                          0.0449181910812538 	(obj:0)
_var7615_                          0.0120356182234962 	(obj:0)
_var7617_                          0.0583320342815365 	(obj:0)
_var7618_                          0.0586795912406465 	(obj:0)
_var7619_                          0.0391128745524984 	(obj:0)
_var7622_                          0.0405525953103566 	(obj:0)
_var7623_                          0.0193019949949231 	(obj:0)
_var7625_                          0.0720374555910301 	(obj:0)
_var7628_                          0.0932760035569237 	(obj:0)
_var7629_                          0.0109857600867138 	(obj:0)
_var7632_                          0.0288041610406977 	(obj:0)
_var7634_                          0.0193628106118922 	(obj:0)
_var7635_                           0.011351883195308 	(obj:0)
_var7636_                           0.041819889852646 	(obj:0)
_var7638_                          0.0222036834180095 	(obj:0)
_var7643_                          0.0332197612769619 	(obj:0)
_var7647_                            0.10715096763667 	(obj:0)
_var7648_                         0.00427788306893194 	(obj:0)
_var7649_                          0.0577851627596878 	(obj:0)
_var7657_                          0.0165511849465952 	(obj:0)
_var7658_                         0.00346810077930537 	(obj:0)
_var7659_                          0.0902694934025344 	(obj:0)
_var7666_                          0.0103636930838212 	(obj:0)
_var7667_                          0.0588711035996417 	(obj:0)
_var7668_                          0.0326543063477117 	(obj:0)
_var7677_                         0.00281184997843597 	(obj:0)
_var7682_                         0.00307180631989218 	(obj:0)
_var7689_                         0.00831245601003375 	(obj:0)
_var7691_                         0.00406148925988071 	(obj:0)
